c description: Random 3-CNF over 11 variables and 33 clauses
p cnf 11 33
-4 -8 9 0
-3 9 -11 0
-5 -6 11 0
-3 8 -10 0
1 2 -6 0
1 4 7 0
3 6 -10 0
-2 -4 -6 0
1 -5 8 0
3 -6 -10 0
2 3 -10 0
-2 -3 -7 0
3 6 7 0
-1 -4 10 0
3 9 -11 0
3 5 -6 0
2 3 -7 0
-2 4 -6 0
-3 -8 9 0
-3 -8 -9 0
3 8 -11 0
-1 -2 7 0
-7 8 -10 0
-5 -6 -11 0
1 8 -9 0
7 -8 -11 0
2 5 7 0
-3 -7 8 0
4 -5 6 0
4 -5 -8 0
1 4 8 0
-2 -5 10 0
-3 -6 7 0